
;this file is automatically generated: Mon Oct 04 22:33:08 IST 2021

;declarations generated

(declare-fun type_8068ef2a_ddd6_4e94_93ff_b60904509a69_Class29 ( Int) Bool)
(declare-fun type_8068ef2a_ddd6_4e94_93ff_b60904509a69_Class27 ( Int) Bool)
(declare-fun type_8068ef2a_ddd6_4e94_93ff_b60904509a69_Class28 ( Int) Bool)
(declare-fun type_8068ef2a_ddd6_4e94_93ff_b60904509a69_Class25 ( Int) Bool)
(declare-fun type_8068ef2a_ddd6_4e94_93ff_b60904509a69_Class26 ( Int) Bool)
(declare-fun type_8068ef2a_ddd6_4e94_93ff_b60904509a69_Class23 ( Int) Bool)
(declare-fun type_8068ef2a_ddd6_4e94_93ff_b60904509a69_Class24 ( Int) Bool)
(declare-fun type_8068ef2a_ddd6_4e94_93ff_b60904509a69_Class21 ( Int) Bool)
(declare-fun type_8068ef2a_ddd6_4e94_93ff_b60904509a69_Class22 ( Int) Bool)
(declare-fun type_8068ef2a_ddd6_4e94_93ff_b60904509a69_Class20 ( Int) Bool)
(declare-fun type_8068ef2a_ddd6_4e94_93ff_b60904509a69_Class18 ( Int) Bool)
(declare-fun type_8068ef2a_ddd6_4e94_93ff_b60904509a69_Class19 ( Int) Bool)
(declare-fun type_8068ef2a_ddd6_4e94_93ff_b60904509a69_Class16 ( Int) Bool)
(declare-fun type_8068ef2a_ddd6_4e94_93ff_b60904509a69_Class17 ( Int) Bool)
(declare-fun type_8068ef2a_ddd6_4e94_93ff_b60904509a69_Class14 ( Int) Bool)
(declare-fun type_8068ef2a_ddd6_4e94_93ff_b60904509a69_Class15 ( Int) Bool)
(declare-fun type_8068ef2a_ddd6_4e94_93ff_b60904509a69_Class12 ( Int) Bool)
(declare-fun type_8068ef2a_ddd6_4e94_93ff_b60904509a69_Class13 ( Int) Bool)
(declare-fun type_8068ef2a_ddd6_4e94_93ff_b60904509a69_Class10 ( Int) Bool)
(declare-fun type_8068ef2a_ddd6_4e94_93ff_b60904509a69_Class11 ( Int) Bool)
(declare-fun oclExcludes ( Int Int) Bool)
(declare-fun type_8068ef2a_ddd6_4e94_93ff_b60904509a69_Class49 ( Int) Bool)
(declare-fun type_8068ef2a_ddd6_4e94_93ff_b60904509a69_Class47 ( Int) Bool)
(declare-fun type_8068ef2a_ddd6_4e94_93ff_b60904509a69_Class48 ( Int) Bool)
(declare-fun type_8068ef2a_ddd6_4e94_93ff_b60904509a69_Class45 ( Int) Bool)
(declare-fun type_8068ef2a_ddd6_4e94_93ff_b60904509a69_Class46 ( Int) Bool)
(declare-fun type_8068ef2a_ddd6_4e94_93ff_b60904509a69_Class43 ( Int) Bool)
(declare-fun type_8068ef2a_ddd6_4e94_93ff_b60904509a69_Class44 ( Int) Bool)
(declare-fun type_8068ef2a_ddd6_4e94_93ff_b60904509a69_Class41 ( Int) Bool)
(declare-fun type_8068ef2a_ddd6_4e94_93ff_b60904509a69_Class42 ( Int) Bool)
(declare-fun type_8068ef2a_ddd6_4e94_93ff_b60904509a69_Class40 ( Int) Bool)
(declare-fun type_8068ef2a_ddd6_4e94_93ff_b60904509a69_Class38 ( Int) Bool)
(declare-fun type_8068ef2a_ddd6_4e94_93ff_b60904509a69_Class39 ( Int) Bool)
(declare-fun type_8068ef2a_ddd6_4e94_93ff_b60904509a69_Class36 ( Int) Bool)
(declare-fun type_8068ef2a_ddd6_4e94_93ff_b60904509a69_Class37 ( Int) Bool)
(declare-fun type_8068ef2a_ddd6_4e94_93ff_b60904509a69_Class34 ( Int) Bool)
(declare-fun type_8068ef2a_ddd6_4e94_93ff_b60904509a69_Class35 ( Int) Bool)
(declare-fun type_8068ef2a_ddd6_4e94_93ff_b60904509a69_Class32 ( Int) Bool)
(declare-fun type_8068ef2a_ddd6_4e94_93ff_b60904509a69_Class33 ( Int) Bool)
(declare-fun type_8068ef2a_ddd6_4e94_93ff_b60904509a69_Class30 ( Int) Bool)
(declare-fun type_8068ef2a_ddd6_4e94_93ff_b60904509a69_Class31 ( Int) Bool)
(declare-fun Cardinality ( Int) Int)
(declare-fun type_8068ef2a_ddd6_4e94_93ff_b60904509a69_Class54 ( Int) Bool)
(declare-fun type_8068ef2a_ddd6_4e94_93ff_b60904509a69_Class55 ( Int) Bool)
(declare-fun type_8068ef2a_ddd6_4e94_93ff_b60904509a69_Class52 ( Int) Bool)
(declare-fun type_8068ef2a_ddd6_4e94_93ff_b60904509a69_Class53 ( Int) Bool)
(declare-fun type_8068ef2a_ddd6_4e94_93ff_b60904509a69_Class50 ( Int) Bool)
(declare-fun type_8068ef2a_ddd6_4e94_93ff_b60904509a69_Class51 ( Int) Bool)
(declare-fun type_8068ef2a_ddd6_4e94_93ff_b60904509a69_Class7 ( Int) Bool)
(declare-fun type_8068ef2a_ddd6_4e94_93ff_b60904509a69_Class8 ( Int) Bool)
(declare-fun type_8068ef2a_ddd6_4e94_93ff_b60904509a69_Class9 ( Int) Bool)
(declare-fun type_8068ef2a_ddd6_4e94_93ff_b60904509a69_Class3 ( Int) Bool)
(declare-fun type_8068ef2a_ddd6_4e94_93ff_b60904509a69_Class4 ( Int) Bool)
(declare-fun type_8068ef2a_ddd6_4e94_93ff_b60904509a69_Class5 ( Int) Bool)
(declare-fun type_8068ef2a_ddd6_4e94_93ff_b60904509a69_Class6 ( Int) Bool)
(declare-fun type_8068ef2a_ddd6_4e94_93ff_b60904509a69_Class0 ( Int) Bool)
(declare-fun type_8068ef2a_ddd6_4e94_93ff_b60904509a69_Class1 ( Int) Bool)
(declare-fun type_8068ef2a_ddd6_4e94_93ff_b60904509a69_Class2 ( Int) Bool)
(declare-fun oclSelect ( Int Bool) Int)
(declare-fun Enum0 ( Int) Int)
(declare-fun Enum1 ( Int) Int)
(declare-fun Enum2 ( Int) Int)
(declare-fun container_ ( Int) Int)
(declare-fun class2_Class2IntAttr4 ( Int) Int)
(declare-fun class2_Class2IntAttr3 ( Int) Int)
(declare-fun oclIncludes ( Int Int) Bool)
(declare-fun obj_d829ec03_54c5_43d8_ad95_4eacdb5ee5de ( Int) Int)
(declare-fun ObjAt ( Int Int) Int)

;formula(s) generated
(assert (! (forall ((c2_1 Int)(c2_2 Int)) (=> (and ( type_8068ef2a_ddd6_4e94_93ff_b60904509a69_Class2 c2_1 )  ( type_8068ef2a_ddd6_4e94_93ff_b60904509a69_Class2 c2_2 ) ) (<= ( class2_Class2IntAttr3 ( obj_d829ec03_54c5_43d8_ad95_4eacdb5ee5de c2_1 )  )  ( class2_Class2IntAttr4 ( obj_d829ec03_54c5_43d8_ad95_4eacdb5ee5de c2_2 )  ) ))):named l0))
(assert (! (forall ((v Int)) (=> ( type_8068ef2a_ddd6_4e94_93ff_b60904509a69_Class2 v )  (>= ( class2_Class2IntAttr3 ( obj_d829ec03_54c5_43d8_ad95_4eacdb5ee5de v )  )  17))):named l1))
(assert (! (exists ((o Int)) ( type_8068ef2a_ddd6_4e94_93ff_b60904509a69_Class0 ( obj_d829ec03_54c5_43d8_ad95_4eacdb5ee5de o )  ) ):named c0))
(assert (! (exists ((o Int)) (and (and (and (and (and ( type_8068ef2a_ddd6_4e94_93ff_b60904509a69_Class1 ( obj_d829ec03_54c5_43d8_ad95_4eacdb5ee5de o )  )  ( type_8068ef2a_ddd6_4e94_93ff_b60904509a69_Class45 ( obj_d829ec03_54c5_43d8_ad95_4eacdb5ee5de o )  ) ) ( type_8068ef2a_ddd6_4e94_93ff_b60904509a69_Class12 ( obj_d829ec03_54c5_43d8_ad95_4eacdb5ee5de o )  ) ) ( type_8068ef2a_ddd6_4e94_93ff_b60904509a69_Class33 ( obj_d829ec03_54c5_43d8_ad95_4eacdb5ee5de o )  ) ) ( type_8068ef2a_ddd6_4e94_93ff_b60904509a69_Class22 ( obj_d829ec03_54c5_43d8_ad95_4eacdb5ee5de o )  ) ) ( type_8068ef2a_ddd6_4e94_93ff_b60904509a69_Class39 ( obj_d829ec03_54c5_43d8_ad95_4eacdb5ee5de o )  ) )):named c1))
(assert (! (exists ((o Int)) (and (and (and (and (and (and (and (and (and ( type_8068ef2a_ddd6_4e94_93ff_b60904509a69_Class10 ( obj_d829ec03_54c5_43d8_ad95_4eacdb5ee5de o )  )  ( type_8068ef2a_ddd6_4e94_93ff_b60904509a69_Class45 ( obj_d829ec03_54c5_43d8_ad95_4eacdb5ee5de o )  ) ) ( type_8068ef2a_ddd6_4e94_93ff_b60904509a69_Class12 ( obj_d829ec03_54c5_43d8_ad95_4eacdb5ee5de o )  ) ) ( type_8068ef2a_ddd6_4e94_93ff_b60904509a69_Class55 ( obj_d829ec03_54c5_43d8_ad95_4eacdb5ee5de o )  ) ) ( type_8068ef2a_ddd6_4e94_93ff_b60904509a69_Class33 ( obj_d829ec03_54c5_43d8_ad95_4eacdb5ee5de o )  ) ) ( type_8068ef2a_ddd6_4e94_93ff_b60904509a69_Class22 ( obj_d829ec03_54c5_43d8_ad95_4eacdb5ee5de o )  ) ) ( type_8068ef2a_ddd6_4e94_93ff_b60904509a69_Class29 ( obj_d829ec03_54c5_43d8_ad95_4eacdb5ee5de o )  ) ) ( type_8068ef2a_ddd6_4e94_93ff_b60904509a69_Class39 ( obj_d829ec03_54c5_43d8_ad95_4eacdb5ee5de o )  ) ) ( type_8068ef2a_ddd6_4e94_93ff_b60904509a69_Class50 ( obj_d829ec03_54c5_43d8_ad95_4eacdb5ee5de o )  ) ) ( type_8068ef2a_ddd6_4e94_93ff_b60904509a69_Class41 ( obj_d829ec03_54c5_43d8_ad95_4eacdb5ee5de o )  ) )):named c2))
(assert (! (exists ((o Int)) ( type_8068ef2a_ddd6_4e94_93ff_b60904509a69_Class11 ( obj_d829ec03_54c5_43d8_ad95_4eacdb5ee5de o )  ) ):named c3))
(assert (! (exists ((o Int)) (and (and (and ( type_8068ef2a_ddd6_4e94_93ff_b60904509a69_Class12 ( obj_d829ec03_54c5_43d8_ad95_4eacdb5ee5de o )  )  ( type_8068ef2a_ddd6_4e94_93ff_b60904509a69_Class33 ( obj_d829ec03_54c5_43d8_ad95_4eacdb5ee5de o )  ) ) ( type_8068ef2a_ddd6_4e94_93ff_b60904509a69_Class22 ( obj_d829ec03_54c5_43d8_ad95_4eacdb5ee5de o )  ) ) ( type_8068ef2a_ddd6_4e94_93ff_b60904509a69_Class39 ( obj_d829ec03_54c5_43d8_ad95_4eacdb5ee5de o )  ) )):named c4))
(assert (! (exists ((o Int)) (and (and (and (and (and (and (and (and (and ( type_8068ef2a_ddd6_4e94_93ff_b60904509a69_Class13 ( obj_d829ec03_54c5_43d8_ad95_4eacdb5ee5de o )  )  ( type_8068ef2a_ddd6_4e94_93ff_b60904509a69_Class45 ( obj_d829ec03_54c5_43d8_ad95_4eacdb5ee5de o )  ) ) ( type_8068ef2a_ddd6_4e94_93ff_b60904509a69_Class12 ( obj_d829ec03_54c5_43d8_ad95_4eacdb5ee5de o )  ) ) ( type_8068ef2a_ddd6_4e94_93ff_b60904509a69_Class55 ( obj_d829ec03_54c5_43d8_ad95_4eacdb5ee5de o )  ) ) ( type_8068ef2a_ddd6_4e94_93ff_b60904509a69_Class33 ( obj_d829ec03_54c5_43d8_ad95_4eacdb5ee5de o )  ) ) ( type_8068ef2a_ddd6_4e94_93ff_b60904509a69_Class22 ( obj_d829ec03_54c5_43d8_ad95_4eacdb5ee5de o )  ) ) ( type_8068ef2a_ddd6_4e94_93ff_b60904509a69_Class29 ( obj_d829ec03_54c5_43d8_ad95_4eacdb5ee5de o )  ) ) ( type_8068ef2a_ddd6_4e94_93ff_b60904509a69_Class39 ( obj_d829ec03_54c5_43d8_ad95_4eacdb5ee5de o )  ) ) ( type_8068ef2a_ddd6_4e94_93ff_b60904509a69_Class50 ( obj_d829ec03_54c5_43d8_ad95_4eacdb5ee5de o )  ) ) ( type_8068ef2a_ddd6_4e94_93ff_b60904509a69_Class41 ( obj_d829ec03_54c5_43d8_ad95_4eacdb5ee5de o )  ) )):named c5))
(assert (! (exists ((o Int)) (and (and (and (and (and (and (and (and (and ( type_8068ef2a_ddd6_4e94_93ff_b60904509a69_Class14 ( obj_d829ec03_54c5_43d8_ad95_4eacdb5ee5de o )  )  ( type_8068ef2a_ddd6_4e94_93ff_b60904509a69_Class45 ( obj_d829ec03_54c5_43d8_ad95_4eacdb5ee5de o )  ) ) ( type_8068ef2a_ddd6_4e94_93ff_b60904509a69_Class12 ( obj_d829ec03_54c5_43d8_ad95_4eacdb5ee5de o )  ) ) ( type_8068ef2a_ddd6_4e94_93ff_b60904509a69_Class55 ( obj_d829ec03_54c5_43d8_ad95_4eacdb5ee5de o )  ) ) ( type_8068ef2a_ddd6_4e94_93ff_b60904509a69_Class33 ( obj_d829ec03_54c5_43d8_ad95_4eacdb5ee5de o )  ) ) ( type_8068ef2a_ddd6_4e94_93ff_b60904509a69_Class22 ( obj_d829ec03_54c5_43d8_ad95_4eacdb5ee5de o )  ) ) ( type_8068ef2a_ddd6_4e94_93ff_b60904509a69_Class29 ( obj_d829ec03_54c5_43d8_ad95_4eacdb5ee5de o )  ) ) ( type_8068ef2a_ddd6_4e94_93ff_b60904509a69_Class39 ( obj_d829ec03_54c5_43d8_ad95_4eacdb5ee5de o )  ) ) ( type_8068ef2a_ddd6_4e94_93ff_b60904509a69_Class50 ( obj_d829ec03_54c5_43d8_ad95_4eacdb5ee5de o )  ) ) ( type_8068ef2a_ddd6_4e94_93ff_b60904509a69_Class41 ( obj_d829ec03_54c5_43d8_ad95_4eacdb5ee5de o )  ) )):named c6))
(assert (! (exists ((o Int)) ( type_8068ef2a_ddd6_4e94_93ff_b60904509a69_Class15 ( obj_d829ec03_54c5_43d8_ad95_4eacdb5ee5de o )  ) ):named c7))
(assert (! (exists ((o Int)) (and (and (and (and (and ( type_8068ef2a_ddd6_4e94_93ff_b60904509a69_Class16 ( obj_d829ec03_54c5_43d8_ad95_4eacdb5ee5de o )  )  ( type_8068ef2a_ddd6_4e94_93ff_b60904509a69_Class45 ( obj_d829ec03_54c5_43d8_ad95_4eacdb5ee5de o )  ) ) ( type_8068ef2a_ddd6_4e94_93ff_b60904509a69_Class12 ( obj_d829ec03_54c5_43d8_ad95_4eacdb5ee5de o )  ) ) ( type_8068ef2a_ddd6_4e94_93ff_b60904509a69_Class33 ( obj_d829ec03_54c5_43d8_ad95_4eacdb5ee5de o )  ) ) ( type_8068ef2a_ddd6_4e94_93ff_b60904509a69_Class22 ( obj_d829ec03_54c5_43d8_ad95_4eacdb5ee5de o )  ) ) ( type_8068ef2a_ddd6_4e94_93ff_b60904509a69_Class39 ( obj_d829ec03_54c5_43d8_ad95_4eacdb5ee5de o )  ) )):named c8))
(assert (! (exists ((o Int)) ( type_8068ef2a_ddd6_4e94_93ff_b60904509a69_Class17 ( obj_d829ec03_54c5_43d8_ad95_4eacdb5ee5de o )  ) ):named c9))
(assert (! (exists ((o Int)) (and (and (and ( type_8068ef2a_ddd6_4e94_93ff_b60904509a69_Class18 ( obj_d829ec03_54c5_43d8_ad95_4eacdb5ee5de o )  )  ( type_8068ef2a_ddd6_4e94_93ff_b60904509a69_Class25 ( obj_d829ec03_54c5_43d8_ad95_4eacdb5ee5de o )  ) ) ( type_8068ef2a_ddd6_4e94_93ff_b60904509a69_Class24 ( obj_d829ec03_54c5_43d8_ad95_4eacdb5ee5de o )  ) ) ( type_8068ef2a_ddd6_4e94_93ff_b60904509a69_Class39 ( obj_d829ec03_54c5_43d8_ad95_4eacdb5ee5de o )  ) )):named c10))
(assert (! (exists ((o Int)) (and (and (and (and (and (and (and (and (and ( type_8068ef2a_ddd6_4e94_93ff_b60904509a69_Class19 ( obj_d829ec03_54c5_43d8_ad95_4eacdb5ee5de o )  )  ( type_8068ef2a_ddd6_4e94_93ff_b60904509a69_Class45 ( obj_d829ec03_54c5_43d8_ad95_4eacdb5ee5de o )  ) ) ( type_8068ef2a_ddd6_4e94_93ff_b60904509a69_Class12 ( obj_d829ec03_54c5_43d8_ad95_4eacdb5ee5de o )  ) ) ( type_8068ef2a_ddd6_4e94_93ff_b60904509a69_Class55 ( obj_d829ec03_54c5_43d8_ad95_4eacdb5ee5de o )  ) ) ( type_8068ef2a_ddd6_4e94_93ff_b60904509a69_Class33 ( obj_d829ec03_54c5_43d8_ad95_4eacdb5ee5de o )  ) ) ( type_8068ef2a_ddd6_4e94_93ff_b60904509a69_Class22 ( obj_d829ec03_54c5_43d8_ad95_4eacdb5ee5de o )  ) ) ( type_8068ef2a_ddd6_4e94_93ff_b60904509a69_Class29 ( obj_d829ec03_54c5_43d8_ad95_4eacdb5ee5de o )  ) ) ( type_8068ef2a_ddd6_4e94_93ff_b60904509a69_Class39 ( obj_d829ec03_54c5_43d8_ad95_4eacdb5ee5de o )  ) ) ( type_8068ef2a_ddd6_4e94_93ff_b60904509a69_Class50 ( obj_d829ec03_54c5_43d8_ad95_4eacdb5ee5de o )  ) ) ( type_8068ef2a_ddd6_4e94_93ff_b60904509a69_Class41 ( obj_d829ec03_54c5_43d8_ad95_4eacdb5ee5de o )  ) )):named c11))
(assert (! (exists ((o Int)) ( type_8068ef2a_ddd6_4e94_93ff_b60904509a69_Class2 ( obj_d829ec03_54c5_43d8_ad95_4eacdb5ee5de o )  ) ):named c12))
(assert (! (exists ((o Int)) ( type_8068ef2a_ddd6_4e94_93ff_b60904509a69_Class20 ( obj_d829ec03_54c5_43d8_ad95_4eacdb5ee5de o )  ) ):named c13))
(assert (! (exists ((o Int)) (and (and (and (and (and (and (and (and (and ( type_8068ef2a_ddd6_4e94_93ff_b60904509a69_Class21 ( obj_d829ec03_54c5_43d8_ad95_4eacdb5ee5de o )  )  ( type_8068ef2a_ddd6_4e94_93ff_b60904509a69_Class45 ( obj_d829ec03_54c5_43d8_ad95_4eacdb5ee5de o )  ) ) ( type_8068ef2a_ddd6_4e94_93ff_b60904509a69_Class12 ( obj_d829ec03_54c5_43d8_ad95_4eacdb5ee5de o )  ) ) ( type_8068ef2a_ddd6_4e94_93ff_b60904509a69_Class33 ( obj_d829ec03_54c5_43d8_ad95_4eacdb5ee5de o )  ) ) ( type_8068ef2a_ddd6_4e94_93ff_b60904509a69_Class22 ( obj_d829ec03_54c5_43d8_ad95_4eacdb5ee5de o )  ) ) ( type_8068ef2a_ddd6_4e94_93ff_b60904509a69_Class16 ( obj_d829ec03_54c5_43d8_ad95_4eacdb5ee5de o )  ) ) ( type_8068ef2a_ddd6_4e94_93ff_b60904509a69_Class29 ( obj_d829ec03_54c5_43d8_ad95_4eacdb5ee5de o )  ) ) ( type_8068ef2a_ddd6_4e94_93ff_b60904509a69_Class39 ( obj_d829ec03_54c5_43d8_ad95_4eacdb5ee5de o )  ) ) ( type_8068ef2a_ddd6_4e94_93ff_b60904509a69_Class41 ( obj_d829ec03_54c5_43d8_ad95_4eacdb5ee5de o )  ) ) ( type_8068ef2a_ddd6_4e94_93ff_b60904509a69_Class51 ( obj_d829ec03_54c5_43d8_ad95_4eacdb5ee5de o )  ) )):named c14))
(assert (! (exists ((o Int)) (and ( type_8068ef2a_ddd6_4e94_93ff_b60904509a69_Class22 ( obj_d829ec03_54c5_43d8_ad95_4eacdb5ee5de o )  )  ( type_8068ef2a_ddd6_4e94_93ff_b60904509a69_Class39 ( obj_d829ec03_54c5_43d8_ad95_4eacdb5ee5de o )  ) )):named c15))
(assert (! (exists ((o Int)) (and (and (and (and ( type_8068ef2a_ddd6_4e94_93ff_b60904509a69_Class23 ( obj_d829ec03_54c5_43d8_ad95_4eacdb5ee5de o )  )  ( type_8068ef2a_ddd6_4e94_93ff_b60904509a69_Class25 ( obj_d829ec03_54c5_43d8_ad95_4eacdb5ee5de o )  ) ) ( type_8068ef2a_ddd6_4e94_93ff_b60904509a69_Class24 ( obj_d829ec03_54c5_43d8_ad95_4eacdb5ee5de o )  ) ) ( type_8068ef2a_ddd6_4e94_93ff_b60904509a69_Class39 ( obj_d829ec03_54c5_43d8_ad95_4eacdb5ee5de o )  ) ) ( type_8068ef2a_ddd6_4e94_93ff_b60904509a69_Class5 ( obj_d829ec03_54c5_43d8_ad95_4eacdb5ee5de o )  ) )):named c16))
(assert (! (exists ((o Int)) (and (and ( type_8068ef2a_ddd6_4e94_93ff_b60904509a69_Class24 ( obj_d829ec03_54c5_43d8_ad95_4eacdb5ee5de o )  )  ( type_8068ef2a_ddd6_4e94_93ff_b60904509a69_Class25 ( obj_d829ec03_54c5_43d8_ad95_4eacdb5ee5de o )  ) ) ( type_8068ef2a_ddd6_4e94_93ff_b60904509a69_Class39 ( obj_d829ec03_54c5_43d8_ad95_4eacdb5ee5de o )  ) )):named c17))
(assert (! (exists ((o Int)) (and ( type_8068ef2a_ddd6_4e94_93ff_b60904509a69_Class25 ( obj_d829ec03_54c5_43d8_ad95_4eacdb5ee5de o )  )  ( type_8068ef2a_ddd6_4e94_93ff_b60904509a69_Class39 ( obj_d829ec03_54c5_43d8_ad95_4eacdb5ee5de o )  ) )):named c18))
(assert (! (exists ((o Int)) ( type_8068ef2a_ddd6_4e94_93ff_b60904509a69_Class26 ( obj_d829ec03_54c5_43d8_ad95_4eacdb5ee5de o )  ) ):named c19))
(assert (! (exists ((o Int)) ( type_8068ef2a_ddd6_4e94_93ff_b60904509a69_Class27 ( obj_d829ec03_54c5_43d8_ad95_4eacdb5ee5de o )  ) ):named c20))
(assert (! (exists ((o Int)) (and (and (and (and (and (and (and ( type_8068ef2a_ddd6_4e94_93ff_b60904509a69_Class28 ( obj_d829ec03_54c5_43d8_ad95_4eacdb5ee5de o )  )  ( type_8068ef2a_ddd6_4e94_93ff_b60904509a69_Class45 ( obj_d829ec03_54c5_43d8_ad95_4eacdb5ee5de o )  ) ) ( type_8068ef2a_ddd6_4e94_93ff_b60904509a69_Class12 ( obj_d829ec03_54c5_43d8_ad95_4eacdb5ee5de o )  ) ) ( type_8068ef2a_ddd6_4e94_93ff_b60904509a69_Class33 ( obj_d829ec03_54c5_43d8_ad95_4eacdb5ee5de o )  ) ) ( type_8068ef2a_ddd6_4e94_93ff_b60904509a69_Class22 ( obj_d829ec03_54c5_43d8_ad95_4eacdb5ee5de o )  ) ) ( type_8068ef2a_ddd6_4e94_93ff_b60904509a69_Class29 ( obj_d829ec03_54c5_43d8_ad95_4eacdb5ee5de o )  ) ) ( type_8068ef2a_ddd6_4e94_93ff_b60904509a69_Class39 ( obj_d829ec03_54c5_43d8_ad95_4eacdb5ee5de o )  ) ) ( type_8068ef2a_ddd6_4e94_93ff_b60904509a69_Class41 ( obj_d829ec03_54c5_43d8_ad95_4eacdb5ee5de o )  ) )):named c21))
(assert (! (exists ((o Int)) (and (and (and (and (and (and ( type_8068ef2a_ddd6_4e94_93ff_b60904509a69_Class29 ( obj_d829ec03_54c5_43d8_ad95_4eacdb5ee5de o )  )  ( type_8068ef2a_ddd6_4e94_93ff_b60904509a69_Class45 ( obj_d829ec03_54c5_43d8_ad95_4eacdb5ee5de o )  ) ) ( type_8068ef2a_ddd6_4e94_93ff_b60904509a69_Class12 ( obj_d829ec03_54c5_43d8_ad95_4eacdb5ee5de o )  ) ) ( type_8068ef2a_ddd6_4e94_93ff_b60904509a69_Class33 ( obj_d829ec03_54c5_43d8_ad95_4eacdb5ee5de o )  ) ) ( type_8068ef2a_ddd6_4e94_93ff_b60904509a69_Class22 ( obj_d829ec03_54c5_43d8_ad95_4eacdb5ee5de o )  ) ) ( type_8068ef2a_ddd6_4e94_93ff_b60904509a69_Class39 ( obj_d829ec03_54c5_43d8_ad95_4eacdb5ee5de o )  ) ) ( type_8068ef2a_ddd6_4e94_93ff_b60904509a69_Class41 ( obj_d829ec03_54c5_43d8_ad95_4eacdb5ee5de o )  ) )):named c22))
(assert (! (exists ((o Int)) (and (and (and ( type_8068ef2a_ddd6_4e94_93ff_b60904509a69_Class3 ( obj_d829ec03_54c5_43d8_ad95_4eacdb5ee5de o )  )  ( type_8068ef2a_ddd6_4e94_93ff_b60904509a69_Class25 ( obj_d829ec03_54c5_43d8_ad95_4eacdb5ee5de o )  ) ) ( type_8068ef2a_ddd6_4e94_93ff_b60904509a69_Class24 ( obj_d829ec03_54c5_43d8_ad95_4eacdb5ee5de o )  ) ) ( type_8068ef2a_ddd6_4e94_93ff_b60904509a69_Class39 ( obj_d829ec03_54c5_43d8_ad95_4eacdb5ee5de o )  ) )):named c23))
(assert (! (exists ((o Int)) (and ( type_8068ef2a_ddd6_4e94_93ff_b60904509a69_Class30 ( obj_d829ec03_54c5_43d8_ad95_4eacdb5ee5de o )  )  ( type_8068ef2a_ddd6_4e94_93ff_b60904509a69_Class39 ( obj_d829ec03_54c5_43d8_ad95_4eacdb5ee5de o )  ) )):named c24))
(assert (! (exists ((o Int)) (and (and (and (and (and ( type_8068ef2a_ddd6_4e94_93ff_b60904509a69_Class31 ( obj_d829ec03_54c5_43d8_ad95_4eacdb5ee5de o )  )  ( type_8068ef2a_ddd6_4e94_93ff_b60904509a69_Class45 ( obj_d829ec03_54c5_43d8_ad95_4eacdb5ee5de o )  ) ) ( type_8068ef2a_ddd6_4e94_93ff_b60904509a69_Class12 ( obj_d829ec03_54c5_43d8_ad95_4eacdb5ee5de o )  ) ) ( type_8068ef2a_ddd6_4e94_93ff_b60904509a69_Class33 ( obj_d829ec03_54c5_43d8_ad95_4eacdb5ee5de o )  ) ) ( type_8068ef2a_ddd6_4e94_93ff_b60904509a69_Class22 ( obj_d829ec03_54c5_43d8_ad95_4eacdb5ee5de o )  ) ) ( type_8068ef2a_ddd6_4e94_93ff_b60904509a69_Class39 ( obj_d829ec03_54c5_43d8_ad95_4eacdb5ee5de o )  ) )):named c25))
(assert (! (exists ((o Int)) ( type_8068ef2a_ddd6_4e94_93ff_b60904509a69_Class32 ( obj_d829ec03_54c5_43d8_ad95_4eacdb5ee5de o )  ) ):named c26))
(assert (! (exists ((o Int)) (and (and ( type_8068ef2a_ddd6_4e94_93ff_b60904509a69_Class33 ( obj_d829ec03_54c5_43d8_ad95_4eacdb5ee5de o )  )  ( type_8068ef2a_ddd6_4e94_93ff_b60904509a69_Class22 ( obj_d829ec03_54c5_43d8_ad95_4eacdb5ee5de o )  ) ) ( type_8068ef2a_ddd6_4e94_93ff_b60904509a69_Class39 ( obj_d829ec03_54c5_43d8_ad95_4eacdb5ee5de o )  ) )):named c27))
(assert (! (exists ((o Int)) (and (and (and ( type_8068ef2a_ddd6_4e94_93ff_b60904509a69_Class34 ( obj_d829ec03_54c5_43d8_ad95_4eacdb5ee5de o )  )  ( type_8068ef2a_ddd6_4e94_93ff_b60904509a69_Class25 ( obj_d829ec03_54c5_43d8_ad95_4eacdb5ee5de o )  ) ) ( type_8068ef2a_ddd6_4e94_93ff_b60904509a69_Class24 ( obj_d829ec03_54c5_43d8_ad95_4eacdb5ee5de o )  ) ) ( type_8068ef2a_ddd6_4e94_93ff_b60904509a69_Class39 ( obj_d829ec03_54c5_43d8_ad95_4eacdb5ee5de o )  ) )):named c28))
(assert (! (exists ((o Int)) (and (and ( type_8068ef2a_ddd6_4e94_93ff_b60904509a69_Class35 ( obj_d829ec03_54c5_43d8_ad95_4eacdb5ee5de o )  )  ( type_8068ef2a_ddd6_4e94_93ff_b60904509a69_Class39 ( obj_d829ec03_54c5_43d8_ad95_4eacdb5ee5de o )  ) ) ( type_8068ef2a_ddd6_4e94_93ff_b60904509a69_Class30 ( obj_d829ec03_54c5_43d8_ad95_4eacdb5ee5de o )  ) )):named c29))
(assert (! (exists ((o Int)) ( type_8068ef2a_ddd6_4e94_93ff_b60904509a69_Class36 ( obj_d829ec03_54c5_43d8_ad95_4eacdb5ee5de o )  ) ):named c30))
(assert (! (exists ((o Int)) ( type_8068ef2a_ddd6_4e94_93ff_b60904509a69_Class37 ( obj_d829ec03_54c5_43d8_ad95_4eacdb5ee5de o )  ) ):named c31))
(assert (! (exists ((o Int)) ( type_8068ef2a_ddd6_4e94_93ff_b60904509a69_Class38 ( obj_d829ec03_54c5_43d8_ad95_4eacdb5ee5de o )  ) ):named c32))
(assert (! (exists ((o Int)) ( type_8068ef2a_ddd6_4e94_93ff_b60904509a69_Class39 ( obj_d829ec03_54c5_43d8_ad95_4eacdb5ee5de o )  ) ):named c33))
(assert (! (exists ((o Int)) ( type_8068ef2a_ddd6_4e94_93ff_b60904509a69_Class4 ( obj_d829ec03_54c5_43d8_ad95_4eacdb5ee5de o )  ) ):named c34))
(assert (! (exists ((o Int)) (and (and (and (and (and (and (and (and (and ( type_8068ef2a_ddd6_4e94_93ff_b60904509a69_Class40 ( obj_d829ec03_54c5_43d8_ad95_4eacdb5ee5de o )  )  ( type_8068ef2a_ddd6_4e94_93ff_b60904509a69_Class45 ( obj_d829ec03_54c5_43d8_ad95_4eacdb5ee5de o )  ) ) ( type_8068ef2a_ddd6_4e94_93ff_b60904509a69_Class12 ( obj_d829ec03_54c5_43d8_ad95_4eacdb5ee5de o )  ) ) ( type_8068ef2a_ddd6_4e94_93ff_b60904509a69_Class55 ( obj_d829ec03_54c5_43d8_ad95_4eacdb5ee5de o )  ) ) ( type_8068ef2a_ddd6_4e94_93ff_b60904509a69_Class33 ( obj_d829ec03_54c5_43d8_ad95_4eacdb5ee5de o )  ) ) ( type_8068ef2a_ddd6_4e94_93ff_b60904509a69_Class22 ( obj_d829ec03_54c5_43d8_ad95_4eacdb5ee5de o )  ) ) ( type_8068ef2a_ddd6_4e94_93ff_b60904509a69_Class29 ( obj_d829ec03_54c5_43d8_ad95_4eacdb5ee5de o )  ) ) ( type_8068ef2a_ddd6_4e94_93ff_b60904509a69_Class39 ( obj_d829ec03_54c5_43d8_ad95_4eacdb5ee5de o )  ) ) ( type_8068ef2a_ddd6_4e94_93ff_b60904509a69_Class50 ( obj_d829ec03_54c5_43d8_ad95_4eacdb5ee5de o )  ) ) ( type_8068ef2a_ddd6_4e94_93ff_b60904509a69_Class41 ( obj_d829ec03_54c5_43d8_ad95_4eacdb5ee5de o )  ) )):named c35))
(assert (! (exists ((o Int)) (and (and (and (and (and ( type_8068ef2a_ddd6_4e94_93ff_b60904509a69_Class41 ( obj_d829ec03_54c5_43d8_ad95_4eacdb5ee5de o )  )  ( type_8068ef2a_ddd6_4e94_93ff_b60904509a69_Class45 ( obj_d829ec03_54c5_43d8_ad95_4eacdb5ee5de o )  ) ) ( type_8068ef2a_ddd6_4e94_93ff_b60904509a69_Class12 ( obj_d829ec03_54c5_43d8_ad95_4eacdb5ee5de o )  ) ) ( type_8068ef2a_ddd6_4e94_93ff_b60904509a69_Class33 ( obj_d829ec03_54c5_43d8_ad95_4eacdb5ee5de o )  ) ) ( type_8068ef2a_ddd6_4e94_93ff_b60904509a69_Class22 ( obj_d829ec03_54c5_43d8_ad95_4eacdb5ee5de o )  ) ) ( type_8068ef2a_ddd6_4e94_93ff_b60904509a69_Class39 ( obj_d829ec03_54c5_43d8_ad95_4eacdb5ee5de o )  ) )):named c36))
(assert (! (exists ((o Int)) (and ( type_8068ef2a_ddd6_4e94_93ff_b60904509a69_Class42 ( obj_d829ec03_54c5_43d8_ad95_4eacdb5ee5de o )  )  ( type_8068ef2a_ddd6_4e94_93ff_b60904509a69_Class39 ( obj_d829ec03_54c5_43d8_ad95_4eacdb5ee5de o )  ) )):named c37))
(assert (! (exists ((o Int)) ( type_8068ef2a_ddd6_4e94_93ff_b60904509a69_Class43 ( obj_d829ec03_54c5_43d8_ad95_4eacdb5ee5de o )  ) ):named c38))
(assert (! (exists ((o Int)) (and (and (and (and (and (and (and ( type_8068ef2a_ddd6_4e94_93ff_b60904509a69_Class44 ( obj_d829ec03_54c5_43d8_ad95_4eacdb5ee5de o )  )  ( type_8068ef2a_ddd6_4e94_93ff_b60904509a69_Class45 ( obj_d829ec03_54c5_43d8_ad95_4eacdb5ee5de o )  ) ) ( type_8068ef2a_ddd6_4e94_93ff_b60904509a69_Class12 ( obj_d829ec03_54c5_43d8_ad95_4eacdb5ee5de o )  ) ) ( type_8068ef2a_ddd6_4e94_93ff_b60904509a69_Class33 ( obj_d829ec03_54c5_43d8_ad95_4eacdb5ee5de o )  ) ) ( type_8068ef2a_ddd6_4e94_93ff_b60904509a69_Class22 ( obj_d829ec03_54c5_43d8_ad95_4eacdb5ee5de o )  ) ) ( type_8068ef2a_ddd6_4e94_93ff_b60904509a69_Class29 ( obj_d829ec03_54c5_43d8_ad95_4eacdb5ee5de o )  ) ) ( type_8068ef2a_ddd6_4e94_93ff_b60904509a69_Class39 ( obj_d829ec03_54c5_43d8_ad95_4eacdb5ee5de o )  ) ) ( type_8068ef2a_ddd6_4e94_93ff_b60904509a69_Class41 ( obj_d829ec03_54c5_43d8_ad95_4eacdb5ee5de o )  ) )):named c39))
(assert (! (exists ((o Int)) (and (and (and (and ( type_8068ef2a_ddd6_4e94_93ff_b60904509a69_Class45 ( obj_d829ec03_54c5_43d8_ad95_4eacdb5ee5de o )  )  ( type_8068ef2a_ddd6_4e94_93ff_b60904509a69_Class12 ( obj_d829ec03_54c5_43d8_ad95_4eacdb5ee5de o )  ) ) ( type_8068ef2a_ddd6_4e94_93ff_b60904509a69_Class33 ( obj_d829ec03_54c5_43d8_ad95_4eacdb5ee5de o )  ) ) ( type_8068ef2a_ddd6_4e94_93ff_b60904509a69_Class22 ( obj_d829ec03_54c5_43d8_ad95_4eacdb5ee5de o )  ) ) ( type_8068ef2a_ddd6_4e94_93ff_b60904509a69_Class39 ( obj_d829ec03_54c5_43d8_ad95_4eacdb5ee5de o )  ) )):named c40))
(assert (! (exists ((o Int)) (and (and ( type_8068ef2a_ddd6_4e94_93ff_b60904509a69_Class46 ( obj_d829ec03_54c5_43d8_ad95_4eacdb5ee5de o )  )  ( type_8068ef2a_ddd6_4e94_93ff_b60904509a69_Class39 ( obj_d829ec03_54c5_43d8_ad95_4eacdb5ee5de o )  ) ) ( type_8068ef2a_ddd6_4e94_93ff_b60904509a69_Class5 ( obj_d829ec03_54c5_43d8_ad95_4eacdb5ee5de o )  ) )):named c41))
(assert (! (exists ((o Int)) ( type_8068ef2a_ddd6_4e94_93ff_b60904509a69_Class47 ( obj_d829ec03_54c5_43d8_ad95_4eacdb5ee5de o )  ) ):named c42))
(assert (! (exists ((o Int)) (and (and (and (and (and (and (and (and (and ( type_8068ef2a_ddd6_4e94_93ff_b60904509a69_Class48 ( obj_d829ec03_54c5_43d8_ad95_4eacdb5ee5de o )  )  ( type_8068ef2a_ddd6_4e94_93ff_b60904509a69_Class45 ( obj_d829ec03_54c5_43d8_ad95_4eacdb5ee5de o )  ) ) ( type_8068ef2a_ddd6_4e94_93ff_b60904509a69_Class12 ( obj_d829ec03_54c5_43d8_ad95_4eacdb5ee5de o )  ) ) ( type_8068ef2a_ddd6_4e94_93ff_b60904509a69_Class55 ( obj_d829ec03_54c5_43d8_ad95_4eacdb5ee5de o )  ) ) ( type_8068ef2a_ddd6_4e94_93ff_b60904509a69_Class33 ( obj_d829ec03_54c5_43d8_ad95_4eacdb5ee5de o )  ) ) ( type_8068ef2a_ddd6_4e94_93ff_b60904509a69_Class22 ( obj_d829ec03_54c5_43d8_ad95_4eacdb5ee5de o )  ) ) ( type_8068ef2a_ddd6_4e94_93ff_b60904509a69_Class29 ( obj_d829ec03_54c5_43d8_ad95_4eacdb5ee5de o )  ) ) ( type_8068ef2a_ddd6_4e94_93ff_b60904509a69_Class39 ( obj_d829ec03_54c5_43d8_ad95_4eacdb5ee5de o )  ) ) ( type_8068ef2a_ddd6_4e94_93ff_b60904509a69_Class50 ( obj_d829ec03_54c5_43d8_ad95_4eacdb5ee5de o )  ) ) ( type_8068ef2a_ddd6_4e94_93ff_b60904509a69_Class41 ( obj_d829ec03_54c5_43d8_ad95_4eacdb5ee5de o )  ) )):named c43))
(assert (! (exists ((o Int)) (and (and (and (and (and (and (and (and (and ( type_8068ef2a_ddd6_4e94_93ff_b60904509a69_Class49 ( obj_d829ec03_54c5_43d8_ad95_4eacdb5ee5de o )  )  ( type_8068ef2a_ddd6_4e94_93ff_b60904509a69_Class45 ( obj_d829ec03_54c5_43d8_ad95_4eacdb5ee5de o )  ) ) ( type_8068ef2a_ddd6_4e94_93ff_b60904509a69_Class12 ( obj_d829ec03_54c5_43d8_ad95_4eacdb5ee5de o )  ) ) ( type_8068ef2a_ddd6_4e94_93ff_b60904509a69_Class55 ( obj_d829ec03_54c5_43d8_ad95_4eacdb5ee5de o )  ) ) ( type_8068ef2a_ddd6_4e94_93ff_b60904509a69_Class33 ( obj_d829ec03_54c5_43d8_ad95_4eacdb5ee5de o )  ) ) ( type_8068ef2a_ddd6_4e94_93ff_b60904509a69_Class22 ( obj_d829ec03_54c5_43d8_ad95_4eacdb5ee5de o )  ) ) ( type_8068ef2a_ddd6_4e94_93ff_b60904509a69_Class29 ( obj_d829ec03_54c5_43d8_ad95_4eacdb5ee5de o )  ) ) ( type_8068ef2a_ddd6_4e94_93ff_b60904509a69_Class39 ( obj_d829ec03_54c5_43d8_ad95_4eacdb5ee5de o )  ) ) ( type_8068ef2a_ddd6_4e94_93ff_b60904509a69_Class50 ( obj_d829ec03_54c5_43d8_ad95_4eacdb5ee5de o )  ) ) ( type_8068ef2a_ddd6_4e94_93ff_b60904509a69_Class41 ( obj_d829ec03_54c5_43d8_ad95_4eacdb5ee5de o )  ) )):named c44))
(assert (! (exists ((o Int)) (and ( type_8068ef2a_ddd6_4e94_93ff_b60904509a69_Class5 ( obj_d829ec03_54c5_43d8_ad95_4eacdb5ee5de o )  )  ( type_8068ef2a_ddd6_4e94_93ff_b60904509a69_Class39 ( obj_d829ec03_54c5_43d8_ad95_4eacdb5ee5de o )  ) )):named c45))
(assert (! (exists ((o Int)) (and (and (and (and (and (and (and (and ( type_8068ef2a_ddd6_4e94_93ff_b60904509a69_Class50 ( obj_d829ec03_54c5_43d8_ad95_4eacdb5ee5de o )  )  ( type_8068ef2a_ddd6_4e94_93ff_b60904509a69_Class45 ( obj_d829ec03_54c5_43d8_ad95_4eacdb5ee5de o )  ) ) ( type_8068ef2a_ddd6_4e94_93ff_b60904509a69_Class12 ( obj_d829ec03_54c5_43d8_ad95_4eacdb5ee5de o )  ) ) ( type_8068ef2a_ddd6_4e94_93ff_b60904509a69_Class55 ( obj_d829ec03_54c5_43d8_ad95_4eacdb5ee5de o )  ) ) ( type_8068ef2a_ddd6_4e94_93ff_b60904509a69_Class33 ( obj_d829ec03_54c5_43d8_ad95_4eacdb5ee5de o )  ) ) ( type_8068ef2a_ddd6_4e94_93ff_b60904509a69_Class22 ( obj_d829ec03_54c5_43d8_ad95_4eacdb5ee5de o )  ) ) ( type_8068ef2a_ddd6_4e94_93ff_b60904509a69_Class29 ( obj_d829ec03_54c5_43d8_ad95_4eacdb5ee5de o )  ) ) ( type_8068ef2a_ddd6_4e94_93ff_b60904509a69_Class39 ( obj_d829ec03_54c5_43d8_ad95_4eacdb5ee5de o )  ) ) ( type_8068ef2a_ddd6_4e94_93ff_b60904509a69_Class41 ( obj_d829ec03_54c5_43d8_ad95_4eacdb5ee5de o )  ) )):named c46))
(assert (! (exists ((o Int)) (and (and (and (and (and (and ( type_8068ef2a_ddd6_4e94_93ff_b60904509a69_Class51 ( obj_d829ec03_54c5_43d8_ad95_4eacdb5ee5de o )  )  ( type_8068ef2a_ddd6_4e94_93ff_b60904509a69_Class45 ( obj_d829ec03_54c5_43d8_ad95_4eacdb5ee5de o )  ) ) ( type_8068ef2a_ddd6_4e94_93ff_b60904509a69_Class12 ( obj_d829ec03_54c5_43d8_ad95_4eacdb5ee5de o )  ) ) ( type_8068ef2a_ddd6_4e94_93ff_b60904509a69_Class33 ( obj_d829ec03_54c5_43d8_ad95_4eacdb5ee5de o )  ) ) ( type_8068ef2a_ddd6_4e94_93ff_b60904509a69_Class22 ( obj_d829ec03_54c5_43d8_ad95_4eacdb5ee5de o )  ) ) ( type_8068ef2a_ddd6_4e94_93ff_b60904509a69_Class16 ( obj_d829ec03_54c5_43d8_ad95_4eacdb5ee5de o )  ) ) ( type_8068ef2a_ddd6_4e94_93ff_b60904509a69_Class39 ( obj_d829ec03_54c5_43d8_ad95_4eacdb5ee5de o )  ) )):named c47))
(assert (! (exists ((o Int)) (and (and (and (and (and ( type_8068ef2a_ddd6_4e94_93ff_b60904509a69_Class52 ( obj_d829ec03_54c5_43d8_ad95_4eacdb5ee5de o )  )  ( type_8068ef2a_ddd6_4e94_93ff_b60904509a69_Class45 ( obj_d829ec03_54c5_43d8_ad95_4eacdb5ee5de o )  ) ) ( type_8068ef2a_ddd6_4e94_93ff_b60904509a69_Class12 ( obj_d829ec03_54c5_43d8_ad95_4eacdb5ee5de o )  ) ) ( type_8068ef2a_ddd6_4e94_93ff_b60904509a69_Class33 ( obj_d829ec03_54c5_43d8_ad95_4eacdb5ee5de o )  ) ) ( type_8068ef2a_ddd6_4e94_93ff_b60904509a69_Class22 ( obj_d829ec03_54c5_43d8_ad95_4eacdb5ee5de o )  ) ) ( type_8068ef2a_ddd6_4e94_93ff_b60904509a69_Class39 ( obj_d829ec03_54c5_43d8_ad95_4eacdb5ee5de o )  ) )):named c48))
(assert (! (exists ((o Int)) ( type_8068ef2a_ddd6_4e94_93ff_b60904509a69_Class53 ( obj_d829ec03_54c5_43d8_ad95_4eacdb5ee5de o )  ) ):named c49))
(assert (! (exists ((o Int)) ( type_8068ef2a_ddd6_4e94_93ff_b60904509a69_Class54 ( obj_d829ec03_54c5_43d8_ad95_4eacdb5ee5de o )  ) ):named c50))
(assert (! (exists ((o Int)) (and (and (and (and (and (and (and ( type_8068ef2a_ddd6_4e94_93ff_b60904509a69_Class55 ( obj_d829ec03_54c5_43d8_ad95_4eacdb5ee5de o )  )  ( type_8068ef2a_ddd6_4e94_93ff_b60904509a69_Class45 ( obj_d829ec03_54c5_43d8_ad95_4eacdb5ee5de o )  ) ) ( type_8068ef2a_ddd6_4e94_93ff_b60904509a69_Class12 ( obj_d829ec03_54c5_43d8_ad95_4eacdb5ee5de o )  ) ) ( type_8068ef2a_ddd6_4e94_93ff_b60904509a69_Class33 ( obj_d829ec03_54c5_43d8_ad95_4eacdb5ee5de o )  ) ) ( type_8068ef2a_ddd6_4e94_93ff_b60904509a69_Class22 ( obj_d829ec03_54c5_43d8_ad95_4eacdb5ee5de o )  ) ) ( type_8068ef2a_ddd6_4e94_93ff_b60904509a69_Class29 ( obj_d829ec03_54c5_43d8_ad95_4eacdb5ee5de o )  ) ) ( type_8068ef2a_ddd6_4e94_93ff_b60904509a69_Class39 ( obj_d829ec03_54c5_43d8_ad95_4eacdb5ee5de o )  ) ) ( type_8068ef2a_ddd6_4e94_93ff_b60904509a69_Class41 ( obj_d829ec03_54c5_43d8_ad95_4eacdb5ee5de o )  ) )):named c51))
(assert (! (exists ((o Int)) ( type_8068ef2a_ddd6_4e94_93ff_b60904509a69_Class6 ( obj_d829ec03_54c5_43d8_ad95_4eacdb5ee5de o )  ) ):named c52))
(assert (! (exists ((o Int)) (and (and (and (and (and (and (and (and (and ( type_8068ef2a_ddd6_4e94_93ff_b60904509a69_Class7 ( obj_d829ec03_54c5_43d8_ad95_4eacdb5ee5de o )  )  ( type_8068ef2a_ddd6_4e94_93ff_b60904509a69_Class45 ( obj_d829ec03_54c5_43d8_ad95_4eacdb5ee5de o )  ) ) ( type_8068ef2a_ddd6_4e94_93ff_b60904509a69_Class12 ( obj_d829ec03_54c5_43d8_ad95_4eacdb5ee5de o )  ) ) ( type_8068ef2a_ddd6_4e94_93ff_b60904509a69_Class55 ( obj_d829ec03_54c5_43d8_ad95_4eacdb5ee5de o )  ) ) ( type_8068ef2a_ddd6_4e94_93ff_b60904509a69_Class33 ( obj_d829ec03_54c5_43d8_ad95_4eacdb5ee5de o )  ) ) ( type_8068ef2a_ddd6_4e94_93ff_b60904509a69_Class22 ( obj_d829ec03_54c5_43d8_ad95_4eacdb5ee5de o )  ) ) ( type_8068ef2a_ddd6_4e94_93ff_b60904509a69_Class29 ( obj_d829ec03_54c5_43d8_ad95_4eacdb5ee5de o )  ) ) ( type_8068ef2a_ddd6_4e94_93ff_b60904509a69_Class39 ( obj_d829ec03_54c5_43d8_ad95_4eacdb5ee5de o )  ) ) ( type_8068ef2a_ddd6_4e94_93ff_b60904509a69_Class50 ( obj_d829ec03_54c5_43d8_ad95_4eacdb5ee5de o )  ) ) ( type_8068ef2a_ddd6_4e94_93ff_b60904509a69_Class41 ( obj_d829ec03_54c5_43d8_ad95_4eacdb5ee5de o )  ) )):named c53))
(assert (! (exists ((o Int)) (and ( type_8068ef2a_ddd6_4e94_93ff_b60904509a69_Class8 ( obj_d829ec03_54c5_43d8_ad95_4eacdb5ee5de o )  )  ( type_8068ef2a_ddd6_4e94_93ff_b60904509a69_Class39 ( obj_d829ec03_54c5_43d8_ad95_4eacdb5ee5de o )  ) )):named c54))
(assert (! (exists ((o Int)) ( type_8068ef2a_ddd6_4e94_93ff_b60904509a69_Class9 ( obj_d829ec03_54c5_43d8_ad95_4eacdb5ee5de o )  ) ):named c55))

 ;end of formula 